r = [
0,3,36,131,100,161,151,85,77,110,20,0
];
p = [
0,15,18,28,28,14,10,9,19,28,19,0
];
e = [
0,7,5,15,16,10,10,8,19,3,17,0
];
d = [
0,35,77,159,189,175,161,94,111,198,93,223
];
d_bar = [
0,49,93,184,214,188,170,102,128,223,110,223
];
w = [
0,0.5,0.3125,0.6,0.64,0.769230769,1.111111111,1,1.117647059,0.12,1,0
];
